c description: Graph 3-Colorability of graph: 
c generator: CNFgen (0.9.0)
c copyright: (C) 2012-2020 Massimo Lauria <massimo.lauria@uniroma1.it>
c url: https://massimolauria.net/cnfgen
c
p cnf 90 480
1 2 3 0
-1 -2 0
-1 -3 0
-2 -3 0
4 5 6 0
-4 -5 0
-4 -6 0
-5 -6 0
7 8 9 0
-7 -8 0
-7 -9 0
-8 -9 0
10 11 12 0
-10 -11 0
-10 -12 0
-11 -12 0
13 14 15 0
-13 -14 0
-13 -15 0
-14 -15 0
16 17 18 0
-16 -17 0
-16 -18 0
-17 -18 0
19 20 21 0
-19 -20 0
-19 -21 0
-20 -21 0
22 23 24 0
-22 -23 0
-22 -24 0
-23 -24 0
25 26 27 0
-25 -26 0
-25 -27 0
-26 -27 0
28 29 30 0
-28 -29 0
-28 -30 0
-29 -30 0
31 32 33 0
-31 -32 0
-31 -33 0
-32 -33 0
34 35 36 0
-34 -35 0
-34 -36 0
-35 -36 0
37 38 39 0
-37 -38 0
-37 -39 0
-38 -39 0
40 41 42 0
-40 -41 0
-40 -42 0
-41 -42 0
43 44 45 0
-43 -44 0
-43 -45 0
-44 -45 0
46 47 48 0
-46 -47 0
-46 -48 0
-47 -48 0
49 50 51 0
-49 -50 0
-49 -51 0
-50 -51 0
52 53 54 0
-52 -53 0
-52 -54 0
-53 -54 0
55 56 57 0
-55 -56 0
-55 -57 0
-56 -57 0
58 59 60 0
-58 -59 0
-58 -60 0
-59 -60 0
61 62 63 0
-61 -62 0
-61 -63 0
-62 -63 0
64 65 66 0
-64 -65 0
-64 -66 0
-65 -66 0
67 68 69 0
-67 -68 0
-67 -69 0
-68 -69 0
70 71 72 0
-70 -71 0
-70 -72 0
-71 -72 0
73 74 75 0
-73 -74 0
-73 -75 0
-74 -75 0
76 77 78 0
-76 -77 0
-76 -78 0
-77 -78 0
79 80 81 0
-79 -80 0
-79 -81 0
-80 -81 0
82 83 84 0
-82 -83 0
-82 -84 0
-83 -84 0
85 86 87 0
-85 -86 0
-85 -87 0
-86 -87 0
88 89 90 0
-88 -89 0
-88 -90 0
-89 -90 0
-1 -10 0
-2 -11 0
-3 -12 0
-1 -13 0
-2 -14 0
-3 -15 0
-1 -22 0
-2 -23 0
-3 -24 0
-1 -28 0
-2 -29 0
-3 -30 0
-1 -31 0
-2 -32 0
-3 -33 0
-1 -37 0
-2 -38 0
-3 -39 0
-1 -40 0
-2 -41 0
-3 -42 0
-1 -46 0
-2 -47 0
-3 -48 0
-1 -58 0
-2 -59 0
-3 -60 0
-1 -73 0
-2 -74 0
-3 -75 0
-4 -22 0
-5 -23 0
-6 -24 0
-4 -43 0
-5 -44 0
-6 -45 0
-4 -46 0
-5 -47 0
-6 -48 0
-4 -79 0
-5 -80 0
-6 -81 0
-4 -85 0
-5 -86 0
-6 -87 0
-7 -10 0
-8 -11 0
-9 -12 0
-7 -31 0
-8 -32 0
-9 -33 0
-7 -49 0
-8 -50 0
-9 -51 0
-7 -82 0
-8 -83 0
-9 -84 0
-7 -85 0
-8 -86 0
-9 -87 0
-10 -16 0
-11 -17 0
-12 -18 0
-10 -28 0
-11 -29 0
-12 -30 0
-10 -43 0
-11 -44 0
-12 -45 0
-10 -64 0
-11 -65 0
-12 -66 0
-10 -67 0
-11 -68 0
-12 -69 0
-10 -73 0
-11 -74 0
-12 -75 0
-10 -76 0
-11 -77 0
-12 -78 0
-13 -31 0
-14 -32 0
-15 -33 0
-13 -37 0
-14 -38 0
-15 -39 0
-13 -49 0
-14 -50 0
-15 -51 0
-13 -70 0
-14 -71 0
-15 -72 0
-13 -76 0
-14 -77 0
-15 -78 0
-13 -79 0
-14 -80 0
-15 -81 0
-13 -85 0
-14 -86 0
-15 -87 0
-16 -34 0
-17 -35 0
-18 -36 0
-16 -40 0
-17 -41 0
-18 -42 0
-16 -46 0
-17 -47 0
-18 -48 0
-16 -52 0
-17 -53 0
-18 -54 0
-16 -79 0
-17 -80 0
-18 -81 0
-16 -85 0
-17 -86 0
-18 -87 0
-16 -88 0
-17 -89 0
-18 -90 0
-19 -40 0
-20 -41 0
-21 -42 0
-19 -55 0
-20 -56 0
-21 -57 0
-19 -70 0
-20 -71 0
-21 -72 0
-19 -85 0
-20 -86 0
-21 -87 0
-22 -55 0
-23 -56 0
-24 -57 0
-22 -58 0
-23 -59 0
-24 -60 0
-22 -61 0
-23 -62 0
-24 -63 0
-22 -88 0
-23 -89 0
-24 -90 0
-25 -46 0
-26 -47 0
-27 -48 0
-25 -52 0
-26 -53 0
-27 -54 0
-25 -58 0
-26 -59 0
-27 -60 0
-25 -70 0
-26 -71 0
-27 -72 0
-25 -79 0
-26 -80 0
-27 -81 0
-25 -85 0
-26 -86 0
-27 -87 0
-28 -40 0
-29 -41 0
-30 -42 0
-28 -43 0
-29 -44 0
-30 -45 0
-28 -46 0
-29 -47 0
-30 -48 0
-28 -64 0
-29 -65 0
-30 -66 0
-28 -79 0
-29 -80 0
-30 -81 0
-28 -88 0
-29 -89 0
-30 -90 0
-31 -34 0
-32 -35 0
-33 -36 0
-31 -43 0
-32 -44 0
-33 -45 0
-31 -46 0
-32 -47 0
-33 -48 0
-31 -55 0
-32 -56 0
-33 -57 0
-31 -58 0
-32 -59 0
-33 -60 0
-31 -64 0
-32 -65 0
-33 -66 0
-31 -67 0
-32 -68 0
-33 -69 0
-31 -88 0
-32 -89 0
-33 -90 0
-34 -40 0
-35 -41 0
-36 -42 0
-34 -43 0
-35 -44 0
-36 -45 0
-34 -61 0
-35 -62 0
-36 -63 0
-34 -67 0
-35 -68 0
-36 -69 0
-34 -73 0
-35 -74 0
-36 -75 0
-37 -46 0
-38 -47 0
-39 -48 0
-37 -49 0
-38 -50 0
-39 -51 0
-37 -58 0
-38 -59 0
-39 -60 0
-37 -79 0
-38 -80 0
-39 -81 0
-37 -88 0
-38 -89 0
-39 -90 0
-40 -49 0
-41 -50 0
-42 -51 0
-40 -58 0
-41 -59 0
-42 -60 0
-40 -61 0
-41 -62 0
-42 -63 0
-40 -67 0
-41 -68 0
-42 -69 0
-40 -79 0
-41 -80 0
-42 -81 0
-40 -82 0
-41 -83 0
-42 -84 0
-40 -88 0
-41 -89 0
-42 -90 0
-43 -61 0
-44 -62 0
-45 -63 0
-43 -67 0
-44 -68 0
-45 -69 0
-43 -70 0
-44 -71 0
-45 -72 0
-43 -76 0
-44 -77 0
-45 -78 0
-43 -85 0
-44 -86 0
-45 -87 0
-46 -58 0
-47 -59 0
-48 -60 0
-46 -61 0
-47 -62 0
-48 -63 0
-46 -64 0
-47 -65 0
-48 -66 0
-46 -70 0
-47 -71 0
-48 -72 0
-46 -76 0
-47 -77 0
-48 -78 0
-46 -82 0
-47 -83 0
-48 -84 0
-49 -58 0
-50 -59 0
-51 -60 0
-49 -61 0
-50 -62 0
-51 -63 0
-49 -67 0
-50 -68 0
-51 -69 0
-49 -79 0
-50 -80 0
-51 -81 0
-52 -64 0
-53 -65 0
-54 -66 0
-52 -70 0
-53 -71 0
-54 -72 0
-55 -58 0
-56 -59 0
-57 -60 0
-55 -82 0
-56 -83 0
-57 -84 0
-55 -85 0
-56 -86 0
-57 -87 0
-55 -88 0
-56 -89 0
-57 -90 0
-58 -61 0
-59 -62 0
-60 -63 0
-58 -76 0
-59 -77 0
-60 -78 0
-58 -85 0
-59 -86 0
-60 -87 0
-61 -70 0
-62 -71 0
-63 -72 0
-61 -76 0
-62 -77 0
-63 -78 0
-61 -82 0
-62 -83 0
-63 -84 0
-64 -67 0
-65 -68 0
-66 -69 0
-64 -76 0
-65 -77 0
-66 -78 0
-67 -76 0
-68 -77 0
-69 -78 0
-67 -82 0
-68 -83 0
-69 -84 0
-70 -73 0
-71 -74 0
-72 -75 0
-76 -82 0
-77 -83 0
-78 -84 0
-82 -88 0
-83 -89 0
-84 -90 0